p edge 77 891
e 1 3
e 1 4
e 1 5
e 1 6
e 1 10
e 1 14
e 1 17
e 1 19
e 1 20
e 1 21
e 1 24
e 1 26
e 1 28
e 1 32
e 1 33
e 1 34
e 1 40
e 1 42
e 1 43
e 1 44
e 1 48
e 1 51
e 1 54
e 1 58
e 2 4
e 2 9
e 2 15
e 2 19
e 2 24
e 2 27
e 2 32
e 2 33
e 2 35
e 2 47
e 2 51
e 2 70
e 3 9
e 3 12
e 3 14
e 3 17
e 3 20
e 3 23
e 3 28
e 3 32
e 3 35
e 3 38
e 3 39
e 3 43
e 3 45
e 3 46
e 3 48
e 3 49
e 3 51
e 3 55
e 3 56
e 3 58
e 3 59
e 3 61
e 3 62
e 3 64
e 3 69
e 3 72
e 3 73
e 3 75
e 3 77
e 4 8
e 4 9
e 4 10
e 4 23
e 4 24
e 4 25
e 4 26
e 4 29
e 4 33
e 4 37
e 4 39
e 4 40
e 4 46
e 4 47
e 4 51
e 4 56
e 4 61
e 4 62
e 4 63
e 4 66
e 4 74
e 4 75
e 4 76
e 4 77
e 5 7
e 5 11
e 5 13
e 5 14
e 5 17
e 5 23
e 5 27
e 5 31
e 5 33
e 5 40
e 5 41
e 5 44
e 5 51
e 5 52
e 5 54
e 5 60
e 5 62
e 5 63
e 5 70
e 6 9
e 6 19
e 6 21
e 6 26
e 6 27
e 6 29
e 6 30
e 6 40
e 6 47
e 6 54
e 6 55
e 6 57
e 6 58
e 6 59
e 6 60
e 6 61
e 6 62
e 6 66
e 6 74
e 7 9
e 7 12
e 7 15
e 7 16
e 7 21
e 7 24
e 7 29
e 7 33
e 7 35
e 7 36
e 7 37
e 7 40
e 7 44
e 7 46
e 7 49
e 7 56
e 7 59
e 7 67
e 7 70
e 7 71
e 7 72
e 8 13
e 8 19
e 8 22
e 8 23
e 8 25
e 8 26
e 8 28
e 8 29
e 8 38
e 8 39
e 8 40
e 8 44
e 8 47
e 8 50
e 8 53
e 8 57
e 8 66
e 8 67
e 8 68
e 8 70
e 8 73
e 8 75
e 8 76
e 9 11
e 9 14
e 9 18
e 9 19
e 9 21
e 9 25
e 9 31
e 9 32
e 9 34
e 9 36
e 9 37
e 9 38
e 9 47
e 9 49
e 9 56
e 9 58
e 9 63
e 9 69
e 9 73
e 9 76
e 10 12
e 10 13
e 10 32
e 10 33
e 10 34
e 10 35
e 10 41
e 10 45
e 10 46
e 10 47
e 10 49
e 10 50
e 10 53
e 10 56
e 10 57
e 10 58
e 10 61
e 10 62
e 10 65
e 10 72
e 10 75
e 10 76
e 10 77
e 11 12
e 11 14
e 11 15
e 11 19
e 11 22
e 11 23
e 11 39
e 11 40
e 11 43
e 11 44
e 11 45
e 11 52
e 11 57
e 11 58
e 11 65
e 11 66
e 11 72
e 11 77
e 12 13
e 12 14
e 12 30
e 12 32
e 12 42
e 12 43
e 12 48
e 12 49
e 12 51
e 12 52
e 12 54
e 12 56
e 12 58
e 12 59
e 12 61
e 12 68
e 12 71
e 12 72
e 12 76
e 12 77
e 13 15
e 13 16
e 13 20
e 13 23
e 13 26
e 13 28
e 13 30
e 13 31
e 13 33
e 13 35
e 13 36
e 13 37
e 13 46
e 13 47
e 13 50
e 13 62
e 13 64
e 13 65
e 13 66
e 13 67
e 13 73
e 13 75
e 13 76
e 13 77
e 14 15
e 14 18
e 14 19
e 14 25
e 14 28
e 14 32
e 14 38
e 14 40
e 14 43
e 14 46
e 14 47
e 14 56
e 14 60
e 14 64
e 14 66
e 14 73
e 14 74
e 15 30
e 15 32
e 15 35
e 15 41
e 15 42
e 15 52
e 15 53
e 15 54
e 15 57
e 15 58
e 15 67
e 15 71
e 15 74
e 15 76
e 16 17
e 16 19
e 16 23
e 16 26
e 16 32
e 16 36
e 16 38
e 16 39
e 16 41
e 16 43
e 16 46
e 16 47
e 16 54
e 16 64
e 16 67
e 16 70
e 16 74
e 17 19
e 17 20
e 17 21
e 17 26
e 17 28
e 17 31
e 17 33
e 17 36
e 17 39
e 17 40
e 17 41
e 17 43
e 17 45
e 17 46
e 17 47
e 17 53
e 17 64
e 18 20
e 18 29
e 18 30
e 18 33
e 18 35
e 18 37
e 18 38
e 18 41
e 18 42
e 18 45
e 18 46
e 18 47
e 18 50
e 18 52
e 18 53
e 18 55
e 18 58
e 18 59
e 18 62
e 18 65
e 18 68
e 18 69
e 18 70
e 18 75
e 18 77
e 19 24
e 19 25
e 19 26
e 19 30
e 19 32
e 19 36
e 19 46
e 19 47
e 19 49
e 19 58
e 19 60
e 19 62
e 19 66
e 19 68
e 19 72
e 19 74
e 19 75
e 19 76
e 20 24
e 20 28
e 20 30
e 20 38
e 20 41
e 20 45
e 20 51
e 20 56
e 20 57
e 20 59
e 20 61
e 20 63
e 20 66
e 20 68
e 20 69
e 20 70
e 20 71
e 20 75
e 20 76
e 21 25
e 21 28
e 21 31
e 21 32
e 21 37
e 21 42
e 21 44
e 21 48
e 21 50
e 21 51
e 21 52
e 21 56
e 21 60
e 21 66
e 21 68
e 21 70
e 21 73
e 21 74
e 21 76
e 22 28
e 22 33
e 22 35
e 22 39
e 22 40
e 22 42
e 22 43
e 22 46
e 22 47
e 22 52
e 22 53
e 22 54
e 22 57
e 22 60
e 22 67
e 22 76
e 23 27
e 23 30
e 23 32
e 23 38
e 23 43
e 23 45
e 23 46
e 23 51
e 23 57
e 23 58
e 23 63
e 23 67
e 23 68
e 23 71
e 23 73
e 23 74
e 23 76
e 24 26
e 24 28
e 24 29
e 24 31
e 24 36
e 24 47
e 24 48
e 24 51
e 24 52
e 24 54
e 24 58
e 24 60
e 24 64
e 24 65
e 24 67
e 24 69
e 24 70
e 24 72
e 24 75
e 25 34
e 25 35
e 25 36
e 25 38
e 25 40
e 25 45
e 25 47
e 25 49
e 25 51
e 25 53
e 25 54
e 25 59
e 25 71
e 25 74
e 25 76
e 26 27
e 26 29
e 26 35
e 26 36
e 26 39
e 26 42
e 26 44
e 26 46
e 26 49
e 26 51
e 26 56
e 26 57
e 26 60
e 26 61
e 26 65
e 26 72
e 26 73
e 26 76
e 27 28
e 27 30
e 27 34
e 27 35
e 27 37
e 27 40
e 27 41
e 27 45
e 27 49
e 27 50
e 27 54
e 27 56
e 27 59
e 27 61
e 27 65
e 27 68
e 27 70
e 27 74
e 27 77
e 28 29
e 28 30
e 28 40
e 28 42
e 28 44
e 28 46
e 28 48
e 28 49
e 28 50
e 28 51
e 28 53
e 28 57
e 28 60
e 28 68
e 28 69
e 28 70
e 28 76
e 29 40
e 29 45
e 29 50
e 29 52
e 29 55
e 29 56
e 29 60
e 29 61
e 29 66
e 29 68
e 29 69
e 30 35
e 30 37
e 30 40
e 30 41
e 30 42
e 30 43
e 30 45
e 30 58
e 30 63
e 30 66
e 30 70
e 30 73
e 30 77
e 31 41
e 31 42
e 31 43
e 31 47
e 31 48
e 31 50
e 31 56
e 31 63
e 31 64
e 31 71
e 31 73
e 32 37
e 32 39
e 32 42
e 32 50
e 32 54
e 32 55
e 32 62
e 32 63
e 32 66
e 32 69
e 32 71
e 33 34
e 33 36
e 33 40
e 33 41
e 33 48
e 33 53
e 33 54
e 33 56
e 33 57
e 33 65
e 33 69
e 33 71
e 33 73
e 34 41
e 34 47
e 34 51
e 34 54
e 34 67
e 34 73
e 34 74
e 34 77
e 35 42
e 35 46
e 35 47
e 35 51
e 35 53
e 35 57
e 35 59
e 35 60
e 35 61
e 35 62
e 35 63
e 35 67
e 35 68
e 35 69
e 35 70
e 36 38
e 36 40
e 36 44
e 36 46
e 36 48
e 36 49
e 36 50
e 36 52
e 36 53
e 36 54
e 36 56
e 36 57
e 36 59
e 36 61
e 36 63
e 36 64
e 36 66
e 36 68
e 36 69
e 36 71
e 36 73
e 37 40
e 37 43
e 37 46
e 37 48
e 37 49
e 37 52
e 37 55
e 37 59
e 37 65
e 37 70
e 37 76
e 38 40
e 38 41
e 38 43
e 38 45
e 38 47
e 38 49
e 38 50
e 38 52
e 38 54
e 38 56
e 38 64
e 38 67
e 38 74
e 38 76
e 39 40
e 39 41
e 39 43
e 39 45
e 39 46
e 39 55
e 39 58
e 39 62
e 39 66
e 39 68
e 39 71
e 39 72
e 39 76
e 39 77
e 40 44
e 40 50
e 40 52
e 40 53
e 40 56
e 40 68
e 41 42
e 41 44
e 41 51
e 41 62
e 41 63
e 41 66
e 41 70
e 41 74
e 42 43
e 42 45
e 42 46
e 42 47
e 42 50
e 42 51
e 42 54
e 42 55
e 42 59
e 42 60
e 42 61
e 42 65
e 42 66
e 42 71
e 42 72
e 42 76
e 43 44
e 43 55
e 43 57
e 43 61
e 43 64
e 43 67
e 43 71
e 43 74
e 43 77
e 44 48
e 44 50
e 44 54
e 44 58
e 44 60
e 44 61
e 44 62
e 44 65
e 44 68
e 44 69
e 44 70
e 44 71
e 44 72
e 44 73
e 44 75
e 45 50
e 45 54
e 45 60
e 45 63
e 45 72
e 45 76
e 46 47
e 46 48
e 46 49
e 46 52
e 46 53
e 46 56
e 46 58
e 46 60
e 46 61
e 46 67
e 46 72
e 46 76
e 47 51
e 47 52
e 47 54
e 47 56
e 47 58
e 47 66
e 47 70
e 47 75
e 48 49
e 48 52
e 48 53
e 48 65
e 48 67
e 48 71
e 48 72
e 49 50
e 49 53
e 49 54
e 49 61
e 49 63
e 49 65
e 49 75
e 49 76
e 50 52
e 50 58
e 50 59
e 50 65
e 50 67
e 50 72
e 50 75
e 50 77
e 51 57
e 51 58
e 51 63
e 51 67
e 51 69
e 51 70
e 51 75
e 52 61
e 52 64
e 52 65
e 52 67
e 52 68
e 52 71
e 52 72
e 52 74
e 52 76
e 53 57
e 53 74
e 54 55
e 54 63
e 54 64
e 54 69
e 54 73
e 54 76
e 54 77
e 55 61
e 55 65
e 55 66
e 55 68
e 55 69
e 55 71
e 56 57
e 56 58
e 56 62
e 56 65
e 56 67
e 56 71
e 56 73
e 56 74
e 57 58
e 57 63
e 57 72
e 57 73
e 57 74
e 58 63
e 58 65
e 58 71
e 59 61
e 59 62
e 59 65
e 59 66
e 59 69
e 59 72
e 59 73
e 59 75
e 60 61
e 60 62
e 60 66
e 60 71
e 60 76
e 61 62
e 61 63
e 61 77
e 62 63
e 62 64
e 62 65
e 62 67
e 62 69
e 62 71
e 62 75
e 62 77
e 63 69
e 63 72
e 63 75
e 63 77
e 64 71
e 64 72
e 64 73
e 65 66
e 65 67
e 65 72
e 65 73
e 65 74
e 65 76
e 66 68
e 66 76
e 66 77
e 67 70
e 67 73
e 67 77
e 68 71
e 68 73
e 68 75
e 69 72
e 69 74
e 70 72
e 70 73
e 70 76
e 70 77
e 72 76
e 73 76
e 73 77
e 76 77
